p cnf 20 20
-10 8 4 0
-6 -1 11 0
13 15 -10 0
-1 14 18 0
-7 -13 -17 0
-16 9 6 0
11 -4 -9 0
-15 12 14 0
2 -20 15 0
20 -19 3 0
-13 -9 18 0
-3 9 14 0
-1 -19 12 0
15 -7 -20 0
-4 5 -10 0
12 -17 13 0
-16 2 -18 0
9 12 8 0
1 -7 18 0
-13 -10 -9 0
